0 9 42 27 41 21 2 3 6 21 19 34
24 0 27 11 10 27 17 32 48 17 10 19
28 38 0 15 49 33 18 44 26 30 17 39
35 41 49 0 45 36 48 20 13 11 13 24
41 11 44 39 0 9 26 22 20 17 39 16
29 36 9 33 34 0 29 26 30 30 47 7
48 21 5 20 13 15 0 45 42 35 17 11
5 46 33 5 42 49 20 0 42 49 38 45
49 29 28 29 17 3 22 36 0 25 10 33
44 18 5 37 43 43 11 25 29 0 48 32
29 27 3 45 13 36 28 7 41 40 0 14
34 31 10 44 47 34 28 2 40 34 18 0
